data/benchmarks/bayes/90-17-6-q.cnf
p cnf 1377 1205
c weights 0.285235 0.714765 1 1 1 1 1 1 1 1 1 1 1 1 1 1 1 1 1 1 1 1 1 1 1 1 1 1 1 1 1 1 1 1 1 1 1 1 1 1 1 1 1 1 1 1 1 1 1 1 1 1 1 1 1 1 1 1 1 1 1 1 1 1 1 1 1 1 1 1 1 1 1 1 1 1 1 1 1 1 1 1 1 1 1 1 1 1 1 1 1 1 1 1 1 1 1 1 1 1 1 1 1 1 1 1 1 1 1 1 1 1 1 1 1 1 1 1 1 1 1 1 1 1 1 1 1 1 1 1 1 1 1 1 1 1 1 1 1 1 1 1 1 1 1 1 1 1 1 1 1 1 1 1 1 1 1 1 1 1 1 1 1 1 1 1 1 1 1 1 1 1 1 1 1 1 1 1 1 1 1 1 1 1 1 1 1 1 1 1 1 1 1 1 1 1 1 1 1 1 1 1 1 1 1 1 1 1 1 1 1 1 1 1 1 1 1 1 1 1 1 1 1 1 1 1 1 1 1 1 1 1 1 1 1 1 1 1 1 1 1 1 1 1 1 1 1 1 1 1 1 1 1 1 1 1 1 1 1 1 1 1 1 1 1 1 1 1 1 1 1 1 1 1 1 1 1 1 1 1 1 1 1 1 1 1 1 1 1 1 1 1 1 1 1 1 1 1 1 1 1 1 1 1 1 1 1 1 1 1 1 1 1 1 1 1 1 1 1 1 1 1 1 1 1 1 1 1 1 1 1 1 1 1 1 1 1 1 1 1 1 1 1 1 1 1 1 1 1 1 1 1 1 1 1 1 1 1 1 1 1 1 1 1 1 1 1 1 1 1 1 1 1 1 1 1 1 1 1 1 1 1 1 1 1 1 1 1 1 1 1 1 1 1 1 1 1 1 1 1 1 1 1 1 1 1 1 1 1 1 1 1 1 1 1 1 1 1 1 1 1 1 1 1 1 1 1 1 1 1 1 1 1 1 1 1 1 1 1 1 1 1 1 1 1 1 1 1 1 1 1 1 1 1 1 1 1 1 1 1 1 1 1 1 1 1 1 1 1 1 1 1 1 1 1 1 1 1 1 1 1 1 1 1 1 1 1 1 1 1 1 1 1 1 1 1 1 1 1 1 1 1 1 1 1 1 1 1 1 1 1 1 1 1 1 1 1 1 1 1 1 1 1 1 1 1 1 1 1 1 1 1 1 1 1 1 1 1 1 1 1 1 1 1 1 1 1 1 1 1 1 1 1 1 1 1 1 1 1 1 1 1 1 1 1 1 1 1 1 1 1 1 1 1 1 1 1 1 0.500477 0.49952300000000005 0.01176 0.98824 0.5 0.5 0.5 0.5 0.5 0.5 0.5 0.5 0.5 0.5 0.5 0.5 0.5 0.5 0.5 0.5 0.5 0.5 0.5 0.5 0.5 0.5 0.5 0.5 0.5 0.5 0.5 0.5 0.5 0.5 0.5 0.5 0.5 0.5 0.5 0.5 0.5 0.5 0.5 0.5 0.5 0.5 0.5 0.5 0.5 0.5 0.5 0.5 0.5 0.5 0.5 0.5 0.5 0.5 0.5 0.5 0.5 0.5 0.5 0.5 0.5 0.5 0.5 0.5 0.5 0.5 0.5 0.5 0.5 0.5 0.5 0.5 0.5 0.5 0.5 0.5 0.5 0.5 0.5 0.5 0.5 0.5 0.5 0.5 0.5 0.5 0.5 0.5 0.5 0.5 0.5 0.5 0.5 0.5 0.5 0.5 0.5 0.5 0.5 0.5 0.5 0.5 0.5 0.5 0.5 0.5 0.5 0.5 0.5 0.5 0.5 0.5 0.5 0.5 0.5 0.5 0.5 0.5 0.5 0.5 0.5 0.5 0.5 0.5 0.5 0.5 0.5 0.5 0.5 0.5 0.5 0.5 0.5 0.5 0.5 0.5 0.5 0.5 0.5 0.5 0.5 0.5 0.5 0.5 0.5 0.5 0.5 0.5 0.5 0.5 0.5 0.5 0.5 0.5 0.5 0.5 0.5 0.5 0.5 0.5 0.725844 0.27415599999999996 0.795112 0.20488799999999996 0.0979142 0.9020858 0.610889 0.389111 0.5 0.5 0.5 0.5 0.5 0.5 0.5 0.5 0.5 0.5 0.5 0.5 0.5 0.5 0.5 0.5 0.5 0.5 0.5 0.5 0.5 0.5 0.5 0.5 0.5 0.5 0.5 0.5 0.5 0.5 0.5 0.5 0.5 0.5 0.5 0.5 0.5 0.5 0.5 0.5 0.5 0.5 0.5 0.5 0.5 0.5 0.5 0.5 0.5 0.5 0.5 0.5 0.5 0.5 0.5 0.5 0.5 0.5 0.5 0.5 0.5 0.5 0.5 0.5 0.5 0.5 0.5 0.5 0.5 0.5 0.5 0.5 0.5 0.5 0.5 0.5 0.5 0.5 0.5 0.5 0.5 0.5 0.5 0.5 0.5 0.5 0.5 0.5 0.5 0.5 0.5 0.5 0.5 0.5 0.5 0.5 0.5 0.5 0.5 0.5 0.5 0.5 0.5 0.5 0.5 0.5 0.5 0.5 0.5 0.5 0.5 0.5 0.5 0.5 0.5 0.5 0.5 0.5 0.5 0.5 0.5 0.5 0.5 0.5 0.5 0.5 0.5 0.5 0.5 0.5 0.5 0.5 0.5 0.5 0.5 0.5 0.5 0.5 0.5 0.5 0.5 0.5 0.5 0.5 0.5 0.5 0.5 0.5 0.5 0.5 0.5 0.5 0.5 0.5 0.5 0.5 0.851611 0.148389 0.919542 0.08045800000000003 0.5 0.5 0.5 0.5 0.5 0.5 0.5 0.5 0.5 0.5 0.5 0.5 0.5 0.5 0.5 0.5 0.5 0.5 0.5 0.5 0.5 0.5 0.5 0.5 0.5 0.5 0.5 0.5 0.5 0.5 0.5 0.5 0.5 0.5 0.5 0.5 0.5 0.5 0.5 0.5 0.5 0.5 0.5 0.5 0.5 0.5 0.5 0.5 0.5 0.5 0.5 0.5 0.5 0.5 0.5 0.5 0.5 0.5 0.5 0.5 0.5 0.5 0.5 0.5 0.5 0.5 0.5 0.5 0.5 0.5 0.5 0.5 0.5 0.5 0.5 0.5 0.5 0.5 0.5 0.5 0.5 0.5 0.5 0.5 0.5 0.5 0.5 0.5 0.902475 0.09752499999999997 0.216775 0.7832250000000001 0.368926 0.631074 0.632602 0.367398 0.5 0.5 0.5 0.5 0.5 0.5 0.5 0.5 0.5 0.5 0.5 0.5 0.5 0.5 0.5 0.5 0.5 0.5 0.5 0.5 0.5 0.5 0.5 0.5 0.5 0.5 0.5 0.5 0.5 0.5 0.5 0.5 0.5 0.5 0.5 0.5 0.701226 0.298774 0.879151 0.12084899999999998 0.902002 0.09799800000000003 0.6037 0.3963 0.5 0.5 0.5 0.5 0.5 0.5 0.5 0.5 0.288902 0.711098 0.401497 0.598503 0.981648 0.018352000000000035 0.363961 0.636039 0.5 0.5 0.5 0.5 0.5 0.5 0.5 0.5 0.5 0.5 0.5 0.5 0.5 0.5 0.5 0.5 0.5 0.5 0.5 0.5 0.5 0.5 0.5 0.5 0.5 0.5 0.5 0.5 0.5 0.5 0.5 0.5 0.5 0.5 0.5 0.5 0.5 0.5 0.5 0.5 0.5 0.5 0.5 0.5 0.5 0.5 0.5 0.5 0.919239 0.08076099999999997 0.331435 0.6685650000000001 0.504064 0.49593600000000004 0.162697 0.837303 0.708409 0.29159100000000004 0.258472 0.741528 0.531253 0.468747 0.68861 0.31138999999999994 0.280431 0.719569 0.273034 0.726966 0.899886 0.10011400000000004 0.859262 0.14073800000000003 0.5 0.5 0.5 0.5 0.5 0.5 0.5 0.5 0.61605 0.38395 0.143134 0.856866 0.807558 0.192442 0.703563 0.29643699999999995 0.5 0.5 0.5 0.5 0.5 0.5 0.5 0.5 0.5 0.5 0.5 0.5 0.5 0.5 0.5 0.5 0.5 0.5 0.5 0.5 0.5 0.5 0.5 0.5 0.5 0.5 0.5 0.5 0.5 0.5 0.5 0.5 0.5 0.5 0.5 0.5 0.5 0.5 0.5 0.5 0.5 0.5 0.5 0.5 0.5 0.5 0.5 0.5 0.5 0.5 0.5 0.5 0.5 0.5 0.5 0.5 0.5 0.5 0.5 0.5 0.5 0.5 0.5 0.5 0.5 0.5 0.5 0.5 0.5 0.5 0.5 0.5 0.5 0.5 0.5 0.5 0.5 0.5 0.5 0.5 0.5 0.5 0.5 0.5 0.5 0.5 0.5 0.5 0.5 0.5 0.5 0.5 0.5 0.5 0.5 0.5 0.5 0.5 0.5 0.5 0.5 0.5 0.5 0.5 0.5 0.5 0.5 0.5 0.5 0.5 0.5 0.5 0.5 0.5 0.5 0.5 0.5 0.5 0.5 0.5 0.5 0.5 0.5 0.5 0.5 0.5 0.5 0.5 0.5 0.5 0.5 0.5 0.5 0.5 0.5 0.5 0.5 0.5 0.5 0.5 0.5 0.5 0.5 0.5 0.5 0.5 0.5 0.5 0.5 0.5 0.5 0.5 0.408796 0.5912040000000001 0.858304 0.14169600000000004 0.770074 0.22992599999999996 0.956989 0.04301100000000002 0.5 0.5 0.5 0.5 0.5 0.5 0.5 0.5 0.5 0.5 0.5 0.5 0.5 0.5 0.5 0.5 0.116084 0.883916 0.348045 0.6519550000000001 0.381715 0.618285 0.132654 0.867346 0.5 0.5 0.5 0.5 0.5 0.5 0.5 0.5 0.5 0.5 0.5 0.5 0.5 0.5 0.5 0.5 0.5 0.5 0.5 0.5 0.5 0.5 0.5 0.5 0.5 0.5 0.5 0.5 0.5 0.5 0.5 0.5 0.5 0.5 0.5 0.5 0.5 0.5 0.5 0.5 0.5 0.5 0.5 0.5 0.5 0.5 0.5 0.5 0.5 0.5 0.5 0.5 0.5 0.5 0.5 0.5 0.5 0.5 0.5 0.5 0.5 0.5 0.5 0.5 0.5 0.5 0.5 0.5 0.5 0.5 0.5 0.5 0.843735 0.156265 0.941344 0.05865600000000004 0.547008 0.45299199999999995 0.866942 0.133058 0.5 0.5 0.5 0.5 0.5 0.5 0.5 0.5 0.5 0.5 0.5 0.5 0.5 0.5 0.5 0.5 0.5 0.5 0.5 0.5 0.5 0.5 0.5 0.5 0.5 0.5 0.5 0.5 0.5 0.5 0.5 0.5 0.5 0.5 0.5 0.5 0.5 0.5 0.5 0.5 0.5 0.5 0.5 0.5 0.5 0.5 0.5 0.5 0.5 0.5 0.5 0.5 0.5 0.5 0.5 0.5 0.5 0.5 0.5 0.5 0.5 0.5 0.5 0.5 0.5 0.5 0.5 0.5 0.5 0.5 0.5 0.5 0.5 0.5 0.5 0.5 0.179713 0.820287 0.07165 0.92835 0.0393964 0.9606036 0.9937 0.006299999999999972 0.5 0.5 0.5 0.5 0.5 0.5 0.5 0.5 0.5 0.5 0.5 0.5 0.5 0.5 0.5 0.5 0.5 0.5 0.5 0.5 0.5 0.5 0.5 0.5 0.5 0.5 0.5 0.5 0.5 0.5 0.5 0.5 0.5 0.5 0.5 0.5 0.5 0.5 0.5 0.5 0.5 0.5 0.5 0.5 0.5 0.5 0.5 0.5 0.555553 0.44444700000000004 0.0320623 0.9679377 0.725745 0.274255 0.861301 0.13869900000000002 0.5 0.5 0.5 0.5 0.5 0.5 0.5 0.5 0.5 0.5 0.5 0.5 0.5 0.5 0.5 0.5 0.5 0.5 0.5 0.5 0.847559 0.15244100000000005 0.83511 0.16488999999999998 0.282919 0.7170810000000001 0.490374 0.509626 0.5 0.5 0.5 0.5 0.5 0.5 0.5 0.5 0.5 0.5 0.5 0.5 0.5 0.5 0.5 0.5 0.5 0.5 0.5 0.5 0.5 0.5 0.5 0.5 0.5 0.5 0.5 0.5 0.5 0.5 0.5 0.5 0.5 0.5 0.5 0.5 0.5 0.5 0.5 0.5 0.5 0.5 0.5 0.5 0.5 0.5 0.5 0.5 0.5 0.5 0.5 0.5 0.5 0.5 0.5 0.5 0.913611 0.08638900000000005 0.0983263 0.9016737 0.507816 0.49218399999999995 0.110068 0.889932 0.5 0.5 0.5 0.5 0.5 0.5 0.5 0.5 0.5 0.5 0.5 0.5 0.5 0.5 0.5 0.5 0.5 0.5 0.5 0.5 0.5 0.5 0.5 0.5 0.5 0.5 0.5 0.5 0.5 0.5 0.5 0.5 0.5 0.5 0.5 0.5 0.5 0.5 0.5 0.5 0.5 0.5 0.5 0.5 0.5 0.5 0.5 0.5 0.5 0.5 0.5 0.5 0.5 0.5 0.5 0.5 0.5 0.5 0.5 0.5 0.5 0.5 0.5 0.5 0.5 0.5 0.5 0.5 0.5 0.5 0.5 0.5 0.5 0.5 0.5 0.5 0.5 0.5 0.5 0.5 0.5 0.5 0.5 0.5 0.5 0.5 0.5 0.5 0.5 0.5 0.5 0.5 0.5 0.5 0.5 0.5 0.5 0.5 0.5 0.5 0.5 0.5 0.5 0.5 0.5 0.5 0.5 0.5 0.5 0.5 0.5 0.5 0.5 0.5 0.5 0.5 0.5 0.5 0.5 0.5 0.5 0.5 0.5 0.5 0.5 0.5 0.5 0.5 0.5 0.5 0.5 0.5 0.5 0.5 0.5 0.5 0.5 0.5 0.5 0.5 0.525517 0.474483 0.841367 0.15863300000000002 0.241661 0.758339 0.863952 0.13604799999999995 0.5 0.5 0.5 0.5 0.5 0.5 0.5 0.5 0.5 0.5 0.5 0.5 0.5 0.5 0.5 0.5 0.5 0.5 0.5 0.5 0.5 0.5 0.5 0.5 0.5 0.5 0.5 0.5 0.5 0.5 0.5 0.5 0.5 0.5 0.5 0.5 0.5 0.5 0.5 0.5 0.5 0.5 0.5 0.5 0.5 0.5 0.5 0.5 0.5 0.5 0.5 0.5 0.5 0.5 0.5 0.5 0.5 0.5 0.5 0.5 0.0575486 0.9424514 0.307403 0.692597 0.522286 0.47771399999999997 0.47026 0.52974 0.5 0.5 0.5 0.5 0.5 0.5 0.5 0.5 0.5 0.5 0.5 0.5 0.5 0.5 0.5 0.5 0.5 0.5 0.5 0.5 0.5 0.5 0.5 0.5 0.5 0.5 0.5 0.5 0.5 0.5 0.5 0.5 0.0781064 0.9218936 0.228016 0.771984 0.0585287 0.9414713 0.450123 0.549877 0.5 0.5 0.5 0.5 0.5 0.5 0.5 0.5 0.712016 0.287984 0.398152 0.6018479999999999 0.875199 0.12480100000000005 0.0845717 0.9154283 0.5 0.5 0.5 0.5 0.5 0.5 0.5 0.5 0.5 0.5 0.5 0.5 0.5 0.5 0.5 0.5 0.5 0.5 0.5 0.5 0.5 0.5 0.5 0.5 0.5 0.5 0.5 0.5 0.5 0.5 0.5 0.5 0.5 0.5 0.5 0.5 0.5 0.5 0.5 0.5 0.5 0.5 0.5 0.5 0.5 0.5 0.5 0.5 0.5 0.5 0.5 0.5 0.486423 0.513577 0.958295 0.04170499999999999 0.765191 0.23480900000000005 0.349653 0.650347 0.5 0.5 0.5 0.5 0.5 0.5 0.5 0.5 0.5 0.5 0.5 0.5 0.5 0.5 0.5 0.5 0.946366 0.05363399999999996 0.45118 0.54882 0.810753 0.18924700000000005 0.0881439 0.9118561000000001 0.5 0.5 0.5 0.5 0.5 0.5 0.5 0.5 0.5 0.5 0.5 0.5 0.5 0.5 0.5 0.5 0.5 0.5 0.5 0.5 0.5 0.5 0.5 0.5 0.5 0.5 0.5 0.5 0.5 0.5 0.5 0.5 0.5 0.5 0.5 0.5 0.5 0.5 0.5 0.5 0.5 0.5 0.5 0.5 0.5 0.5 0.5 0.5 0.5 0.5 0.5 0.5 0.5 0.5 0.5 0.5 0.5 0.5 0.5 0.5 0.5 0.5 0.5 0.5 0.5 0.5 0.5 0.5 0.5 0.5 0.5 0.5 0.5 0.5 0.5 0.5 0.5 0.5 0.5 0.5 0.5 0.5 0.5 0.5 0.5 0.5 0.5 0.5 0.5 0.5 0.5 0.5 0.5 0.5 0.5 0.5 0.5 0.5 0.5 0.5 0.5 0.5 0.5 0.5 0.5 0.5 0.5 0.5 0.5 0.5 0.5 0.5 0.5 0.5 0.5 0.5 0.5 0.5 0.5 0.5 0.5 0.5 0.5 0.5 0.5 0.5 0.5 0.5 0.5 0.5 0.5 0.5 0.00255003 0.99744997 0.57613 0.42386999999999997 0.755767 0.24423300000000003 0.542491 0.45750900000000005 0.5 0.5 0.5 0.5 0.5 0.5 0.5 0.5 0.5 0.5 0.5 0.5 0.5 0.5 0.5 0.5 0.5 0.5 0.5 0.5 0.5 0.5 0.5 0.5 0.5 0.5 0.5 0.5 0.5 0.5 0.5 0.5 0.5 0.5 0.5 0.5 0.5 0.5 0.5 0.5 0.5 0.5 0.5 0.5 0.5 0.5 0.5 0.5 0.5 0.5 0.5 0.5 0.5 0.5 0.5 0.5 0.0162084 0.9837916 0.0542883 0.9457117 0.0761577 0.9238423 0.133058 0.866942 0.5 0.5 0.5 0.5 0.5 0.5 0.5 0.5 0.5 0.5 0.5 0.5 0.5 0.5 0.5 0.5 0.5 0.5 0.5 0.5 0.5 0.5 0.5 0.5 0.5 0.5 0.5 0.5 0.5 0.5 0.5 0.5 0.5 0.5 0.5 0.5 0.5 0.5 0.5 0.5 0.5 0.5 0.5 0.5 0.1189 0.8811 0.840097 0.15990300000000002 0.123744 0.876256 0.607775 0.39222500000000005 0.744957 0.255043 0.612644 0.38735600000000003 0.0659495 0.9340505 0.997566 0.0024340000000000472 0.5 0.5 0.5 0.5 0.5 0.5 0.5 0.5 0.5 0.5 0.5 0.5 0.5 0.5 0.5 0.5 0.5 0.5 0.5 0.5 0.5 0.5 0.5 0.5 0.5 0.5 0.5 0.5 0.5 0.5 0.5 0.5 0.5 0.5 0.5 0.5 0.5 0.5 0.5 0.5 0.5 0.5 0.5 0.5 0.5 0.5 0.5 0.5 0.5 0.5 0.5 0.5 0.5 0.5 0.5 0.5 0.5 0.5 0.5 0.5 0.5 0.5 0.5 0.5 0.5 0.5 0.5 0.5 0.5 0.5 0.5 0.5 0.821716 0.178284 0.272297 0.727703 0.387692 0.6123080000000001 0.893427 0.10657300000000003 0.5 0.5 0.5 0.5 0.5 0.5 0.5 0.5 0.5 0.5 0.5 0.5 0.5 0.5 0.5 0.5 0.5 0.5 0.5 0.5 0.5 0.5 0.5 0.5 0.5 0.5 0.5 0.5 0.921071 0.07892900000000003 0.813481 0.186519 0.642743 0.35725700000000005 0.420683 0.5793170000000001 0.5 0.5 0.5 0.5 0.5 0.5 0.5 0.5 0.5 0.5 0.5 0.5 0.5 0.5 0.5 0.5 0.5 0.5 0.5 0.5 0.5 0.5 0.5 0.5 0.5 0.5 0.5 0.5 0.5 0.5 0.5 0.5 0.5 0.5 0.5 0.5 0.5 0.5 0.5 0.5 0.5 0.5 0.5 0.5 0.5 0.5 0.5 0.5 0.5 0.5 0.5 0.5 0.5 0.5 0.5 0.5 0.5 0.5 0.5 0.5 0.5 0.5 0.5 0.5 0.5 0.5 0.5 0.5 0.5 0.5 0.5 0.5 0.5 0.5 0.5 0.5 0.5 0.5 0.5 0.5 0.5 0.5 0.5 0.5 0.5 0.5 0.5 0.5 0.5 0.5 0.5 0.5 0.5 0.5 0.5 0.5 0.5 0.5 0.5 0.5 0.5 0.5 0.5 0.5 0.5 0.5 0.5 0.5 0.5 0.5 0.5 0.5 0.5 0.5 0.5 0.5 0.5 0.5 0.5 0.5 0.5 0.5 0.5 0.5 0.5 0.5 0.5 0.5 0.5 0.5 0.5 0.5 0.5 0.5 0.5 0.5 0.5 0.5 0.5 0.5 0.5 0.5 0.5 0.5 0.5 0.5 0.5 0.5 0.5 0.5 0.5 0.5 0.5 0.5 0.5 0.5 0.5 0.5 0.5 0.5 0.5 0.5 0.5 0.5 0.495117 0.504883 0.30428 0.69572 0.871676 0.128324 0.05475 0.94525 0.5 0.5 0.5 0.5 0.5 0.5 0.5 0.5 0.5 0.5 0.5 0.5 0.5 0.5 0.5 0.5 0.5 0.5 0.5 0.5 0.5 0.5 0.5 0.5 0.5 0.5 0.5 0.5 0.5 0.5 0.5 0.5 0.5 0.5 0.5 0.5 0.5 0.5 0.5 0.5 0.5 0.5 0.5 0.5 0.5 0.5 0.5 0.5 0.5 0.5 0.5 0.5 0.5 0.5 0.5 0.5 0.5 0.5 0.5 0.5 0.5 0.5 0.5 0.5 0.5 0.5 0.5 0.5 0.5 0.5 0.5 0.5 0.5 0.5 0.5 0.5 0.5 0.5 0.5 0.5 0.5 0.5 0.5 0.5 0.5 0.5 0.5 0.5 0.5 0.5 0.5 0.5 0.5 0.5 0.5 0.5 0.5 0.5 0.5 0.5 0.5 0.5 0.5 0.5 0.5 0.5 0.5 0.5 0.5 0.5 0.5 0.5 0.5 0.5 0.5 0.5 0.5 0.5 0.5 0.5 0.5 0.5 0.5 0.5 0.5 0.5 0.5 0.5 0.5 0.5 0.5 0.5 0.5 0.5 0.5 0.5 0.5 0.5 0.5 0.5 0.5 0.5 0.5 0.5 0.5 0.5 0.5 0.5 0.5 0.5 0.5 0.5 0.5 0.5 0.5 0.5 0.5 0.5 0.5 0.5 0.5 0.5 0.5 0.5 0.5 0.5 0.5 0.5 0.5 0.5 0.5 0.5 0.5 0.5 0.5 0.5 0.5 0.5 0.5 0.5 0.5 0.5 0.5 0.5 0.5 0.5 0.5 0.5 0.5 0.5 0.5 0.5 0.5 0.5 0.5 0.5
-1 -290 2 0
-1 290 -2 0
1 -291 2 0
1 291 -2 0
-2 -3 0
2 3 0
-3 4 0
3 -4 0
-4 5 0
4 -5 0
-5 -6 0
5 6 0
-6 7 0
6 -7 0
-7 8 0
7 -8 0
-8 9 0
8 -9 0
-9 -10 0
9 10 0
-10 11 0
10 -11 0
-11 -12 0
11 12 0
-12 -13 0
12 13 0
-13 14 0
13 -14 0
-14 -15 0
14 15 0
-15 16 0
15 -16 0
-16 17 0
16 -17 0
-1 -18 0
1 18 0
-18 -2 19 0
-18 2 19 0
18 -2 19 0
18 2 -19 0
-19 -3 20 0
-19 3 20 0
19 -3 20 0
19 3 -20 0
-20 -4 21 0
-20 4 -21 0
20 -4 21 0
20 4 21 0
-21 -5 22 0
-21 5 22 0
21 -5 22 0
21 5 -22 0
-22 -6 -23 0
-22 6 -23 0
22 -6 -23 0
22 6 23 0
-23 -7 -24 0
-23 7 -24 0
23 -7 24 0
23 7 -24 0
-24 -8 -25 0
-24 8 25 0
24 -8 25 0
24 8 -25 0
-25 -9 -26 0
-25 9 -26 0
25 -9 26 0
25 9 26 0
-26 -10 -27 0
-26 10 -27 0
26 -10 -27 0
26 10 27 0
-27 -11 -28 0
-27 11 28 0
27 -11 28 0
27 11 28 0
-28 -12 29 0
-28 12 -29 0
28 -12 29 0
28 12 29 0
-29 -13 -30 0
-29 13 30 0
29 -13 -30 0
29 13 30 0
-30 -14 -372 31 0
-30 -14 372 -31 0
-30 14 -373 31 0
-30 14 373 -31 0
30 -14 -374 31 0
30 -14 374 -31 0
30 14 -375 31 0
30 14 375 -31 0
-31 -15 -32 0
-31 15 32 0
31 -15 32 0
31 15 -32 0
-32 -16 -33 0
-32 16 -33 0
32 -16 33 0
32 16 -33 0
-33 -17 -34 0
-33 17 34 0
33 -17 -34 0
33 17 -34 0
-18 35 0
18 -35 0
-35 -19 36 0
-35 19 -36 0
35 -19 36 0
35 19 36 0
-36 -20 37 0
-36 20 -37 0
36 -20 -37 0
36 20 37 0
-37 -21 -38 0
-37 21 38 0
37 -21 -38 0
37 21 -38 0
-38 -22 -39 0
-38 22 -39 0
38 -22 -39 0
38 22 39 0
-39 -23 -40 0
-39 23 40 0
39 -23 40 0
39 23 -40 0
-40 -24 41 0
-40 24 -41 0
40 -24 -41 0
40 24 -41 0
-41 -25 42 0
-41 25 -42 0
41 -25 -42 0
41 25 -42 0
-42 -26 43 0
-42 26 -43 0
42 -26 43 0
42 26 -43 0
-43 -27 44 0
-43 27 -44 0
43 -27 44 0
43 27 -44 0
-44 -28 45 0
-44 28 -45 0
44 -28 45 0
44 28 45 0
-45 -29 -46 0
-45 29 46 0
45 -29 -46 0
45 29 46 0
-46 -30 -47 0
-46 30 47 0
46 -30 -47 0
46 30 -47 0
-47 -31 48 0
-47 31 48 0
47 -31 -48 0
47 31 48 0
-48 -32 49 0
-48 32 -49 0
48 -32 49 0
48 32 49 0
-49 -33 -50 0
-49 33 -50 0
49 -33 50 0
49 33 -50 0
-50 -34 51 0
-50 34 51 0
50 -34 51 0
50 34 -51 0
-35 -454 52 0
-35 454 -52 0
35 -455 52 0
35 455 -52 0
-52 -36 53 0
-52 36 -53 0
52 -36 -53 0
52 36 53 0
-53 -37 54 0
-53 37 -54 0
53 -37 -54 0
53 37 -54 0
-54 -38 -55 0
-54 38 55 0
54 -38 55 0
54 38 -55 0
-55 -39 -56 0
-55 39 56 0
55 -39 -56 0
55 39 56 0
-56 -40 57 0
-56 40 57 0
56 -40 -57 0
56 40 57 0
-57 -41 -58 0
-57 41 58 0
57 -41 58 0
57 41 58 0
-58 -42 -59 0
-58 42 59 0
58 -42 -59 0
58 42 -59 0
-59 -43 -60 0
-59 43 60 0
59 -43 60 0
59 43 60 0
-60 -44 -61 0
-60 44 -61 0
60 -44 -61 0
60 44 61 0
-61 -45 -62 0
-61 45 62 0
61 -45 -62 0
61 45 -62 0
-62 -46 63 0
-62 46 63 0
62 -46 63 0
62 46 -63 0
-63 -47 -500 64 0
-63 -47 500 -64 0
-63 47 -501 64 0
-63 47 501 -64 0
63 -47 -502 64 0
63 -47 502 -64 0
63 47 -503 64 0
63 47 503 -64 0
-64 -48 65 0
-64 48 65 0
64 -48 65 0
64 48 -65 0
-65 -49 -66 0
-65 49 66 0
65 -49 66 0
65 49 66 0
-66 -50 67 0
-66 50 67 0
66 -50 -67 0
66 50 -67 0
-67 -51 -68 0
-67 51 -68 0
67 -51 68 0
67 51 68 0
-52 -69 0
52 69 0
-69 -53 -522 70 0
-69 -53 522 -70 0
-69 53 -523 70 0
-69 53 523 -70 0
69 -53 -524 70 0
69 -53 524 -70 0
69 53 -525 70 0
69 53 525 -70 0
-70 -54 71 0
-70 54 71 0
70 -54 -71 0
70 54 -71 0
-71 -55 -530 72 0
-71 -55 530 -72 0
-71 55 -531 72 0
-71 55 531 -72 0
71 -55 -532 72 0
71 -55 532 -72 0
71 55 -533 72 0
71 55 533 -72 0
-72 -56 73 0
-72 56 73 0
72 -56 73 0
72 56 -73 0
-73 -57 -74 0
-73 57 74 0
73 -57 -74 0
73 57 74 0
-74 -58 75 0
-74 58 75 0
74 -58 75 0
74 58 -75 0
-75 -59 76 0
-75 59 -76 0
75 -59 -76 0
75 59 -76 0
-76 -60 77 0
-76 60 77 0
76 -60 -77 0
76 60 77 0
-77 -61 78 0
-77 61 78 0
77 -61 78 0
77 61 -78 0
-78 -62 -558 79 0
-78 -62 558 -79 0
-78 62 -559 79 0
-78 62 559 -79 0
78 -62 -560 79 0
78 -62 560 -79 0
78 62 -561 79 0
78 62 561 -79 0
-79 -63 -562 80 0
-79 -63 562 -80 0
-79 63 -563 80 0
-79 63 563 -80 0
79 -63 -564 80 0
79 -63 564 -80 0
79 63 -565 80 0
79 63 565 -80 0
-80 -64 -566 81 0
-80 -64 566 -81 0
-80 64 -567 81 0
-80 64 567 -81 0
80 -64 -568 81 0
80 -64 568 -81 0
80 64 -569 81 0
80 64 569 -81 0
-81 -65 -82 0
-81 65 -82 0
81 -65 82 0
81 65 -82 0
-82 -66 -574 83 0
-82 -66 574 -83 0
-82 66 -575 83 0
-82 66 575 -83 0
82 -66 -576 83 0
82 -66 576 -83 0
82 66 -577 83 0
82 66 577 -83 0
-83 -67 -84 0
-83 67 84 0
83 -67 -84 0
83 67 -84 0
-84 -68 85 0
-84 68 -85 0
84 -68 85 0
84 68 85 0
-69 -86 0
69 86 0
-86 -70 87 0
-86 70 -87 0
86 -70 87 0
86 70 87 0
-87 -71 -88 0
-87 71 88 0
87 -71 88 0
87 71 -88 0
-88 -72 -89 0
-88 72 -89 0
88 -72 -89 0
88 72 89 0
-89 -73 -90 0
-89 73 90 0
89 -73 -90 0
89 73 -90 0
-90 -74 91 0
-90 74 -91 0
90 -74 91 0
90 74 -91 0
-91 -75 -92 0
-91 75 -92 0
91 -75 92 0
91 75 -92 0
-92 -76 93 0
-92 76 93 0
92 -76 -93 0
92 76 -93 0
-93 -77 -94 0
-93 77 94 0
93 -77 -94 0
93 77 94 0
-94 -78 -95 0
-94 78 95 0
94 -78 -95 0
94 78 -95 0
-95 -79 -96 0
-95 79 96 0
95 -79 96 0
95 79 96 0
-96 -80 97 0
-96 80 -97 0
96 -80 97 0
96 80 -97 0
-97 -81 98 0
-97 81 -98 0
97 -81 -98 0
97 81 -98 0
-98 -82 99 0
-98 82 99 0
98 -82 -99 0
98 82 -99 0
-99 -83 -100 0
-99 83 100 0
99 -83 -100 0
99 83 -100 0
-100 -84 -101 0
-100 84 -101 0
100 -84 -101 0
100 84 101 0
-101 -85 102 0
-101 85 -102 0
101 -85 102 0
101 85 -102 0
-86 -103 0
86 103 0
-103 -87 -654 104 0
-103 -87 654 -104 0
-103 87 -655 104 0
-103 87 655 -104 0
103 -87 -656 104 0
103 -87 656 -104 0
103 87 -657 104 0
103 87 657 -104 0
-104 -88 105 0
-104 88 -105 0
104 -88 105 0
104 88 -105 0
-105 -89 106 0
-105 89 -106 0
105 -89 106 0
105 89 106 0
-106 -90 -666 107 0
-106 -90 666 -107 0
-106 90 -667 107 0
-106 90 667 -107 0
106 -90 -668 107 0
106 -90 668 -107 0
106 90 -669 107 0
106 90 669 -107 0
-107 -91 -108 0
-107 91 108 0
107 -91 108 0
107 91 108 0
-108 -92 109 0
-108 92 -109 0
108 -92 109 0
108 92 109 0
-109 -93 -110 0
-109 93 -110 0
109 -93 110 0
109 93 -110 0
-110 -94 -111 0
-110 94 111 0
110 -94 -111 0
110 94 -111 0
-111 -95 -112 0
-111 95 -112 0
111 -95 -112 0
111 95 112 0
-112 -96 -113 0
-112 96 113 0
112 -96 -113 0
112 96 -113 0
-113 -97 -114 0
-113 97 -114 0
113 -97 114 0
113 97 114 0
-114 -98 115 0
-114 98 -115 0
114 -98 115 0
114 98 115 0
-115 -99 116 0
-115 99 -116 0
115 -99 -116 0
115 99 116 0
-116 -100 -706 117 0
-116 -100 706 -117 0
-116 100 -707 117 0
-116 100 707 -117 0
116 -100 -708 117 0
116 -100 708 -117 0
116 100 -709 117 0
116 100 709 -117 0
-117 -101 -118 0
-117 101 118 0
117 -101 118 0
117 101 118 0
-118 -102 119 0
-118 102 119 0
118 -102 -119 0
118 102 -119 0
-103 120 0
103 -120 0
-120 -104 121 0
-120 104 121 0
120 -104 121 0
120 104 -121 0
-121 -105 -122 0
-121 105 122 0
121 -105 -122 0
121 105 -122 0
-122 -106 -123 0
-122 106 123 0
122 -106 -123 0
122 106 123 0
-123 -107 124 0
-123 107 124 0
123 -107 124 0
123 107 -124 0
-124 -108 125 0
-124 108 -125 0
124 -108 -125 0
124 108 -125 0
-125 -109 -126 0
-125 109 -126 0
125 -109 126 0
125 109 -126 0
-126 -110 127 0
-126 110 127 0
126 -110 -127 0
126 110 127 0
-127 -111 -748 128 0
-127 -111 748 -128 0
-127 111 -749 128 0
-127 111 749 -128 0
127 -111 -750 128 0
127 -111 750 -128 0
127 111 -751 128 0
127 111 751 -128 0
-128 -112 129 0
-128 112 -129 0
128 -112 -129 0
128 112 129 0
-129 -113 130 0
-129 113 -130 0
129 -113 -130 0
129 113 130 0
-130 -114 131 0
-130 114 -131 0
130 -114 131 0
130 114 131 0
-131 -115 -132 0
-131 115 -132 0
131 -115 132 0
131 115 -132 0
-132 -116 133 0
-132 116 133 0
132 -116 133 0
132 116 -133 0
-133 -117 134 0
-133 117 -134 0
133 -117 134 0
133 117 134 0
-134 -118 -776 135 0
-134 -118 776 -135 0
-134 118 -777 135 0
-134 118 777 -135 0
134 -118 -778 135 0
134 -118 778 -135 0
134 118 -779 135 0
134 118 779 -135 0
-135 -119 -136 0
-135 119 -136 0
135 -119 136 0
135 119 136 0
-120 137 0
120 -137 0
-137 -121 138 0
-137 121 -138 0
137 -121 -138 0
137 121 138 0
-138 -122 -790 139 0
-138 -122 790 -139 0
-138 122 -791 139 0
-138 122 791 -139 0
138 -122 -792 139 0
138 -122 792 -139 0
138 122 -793 139 0
138 122 793 -139 0
-139 -123 140 0
-139 123 140 0
139 -123 -140 0
139 123 140 0
-140 -124 -141 0
-140 124 141 0
140 -124 141 0
140 124 -141 0
-141 -125 -142 0
-141 125 -142 0
141 -125 142 0
141 125 -142 0
-142 -126 -143 0
-142 126 -143 0
142 -126 -143 0
142 126 143 0
-143 -127 144 0
-143 127 -144 0
143 -127 144 0
143 127 -144 0
-144 -128 145 0
-144 128 -145 0
144 -128 -145 0
144 128 -145 0
-145 -129 -146 0
-145 129 146 0
145 -129 -146 0
145 129 146 0
-146 -130 -822 147 0
-146 -130 822 -147 0
-146 130 -823 147 0
-146 130 823 -147 0
146 -130 -824 147 0
146 -130 824 -147 0
146 130 -825 147 0
146 130 825 -147 0
-147 -131 148 0
-147 131 -148 0
147 -131 -148 0
147 131 -148 0
-148 -132 149 0
-148 132 -149 0
148 -132 149 0
148 132 149 0
-149 -133 -150 0
-149 133 150 0
149 -133 -150 0
149 133 150 0
-150 -134 -151 0
-150 134 -151 0
150 -134 151 0
150 134 -151 0
-151 -135 -152 0
-151 135 152 0
151 -135 -152 0
151 135 -152 0
-152 -136 153 0
-152 136 -153 0
152 -136 153 0
152 136 153 0
-137 154 0
137 -154 0
-154 -138 155 0
-154 138 155 0
154 -138 -155 0
154 138 -155 0
-155 -139 156 0
-155 139 -156 0
155 -139 156 0
155 139 156 0
-156 -140 157 0
-156 140 -157 0
156 -140 157 0
156 140 157 0
-157 -141 158 0
-157 141 -158 0
157 -141 158 0
157 141 158 0
-158 -142 159 0
-158 142 159 0
158 -142 159 0
158 142 -159 0
-159 -143 -160 0
-159 143 160 0
159 -143 -160 0
159 143 160 0
-160 -144 161 0
-160 144 -161 0
160 -144 161 0
160 144 161 0
-161 -145 -162 0
-161 145 -162 0
161 -145 -162 0
161 145 162 0
-162 -146 -163 0
-162 146 163 0
162 -146 163 0
162 146 -163 0
-163 -147 164 0
-163 147 164 0
163 -147 -164 0
163 147 -164 0
-164 -148 165 0
-164 148 165 0
164 -148 165 0
164 148 -165 0
-165 -149 -896 166 0
-165 -149 896 -166 0
-165 149 -897 166 0
-165 149 897 -166 0
165 -149 -898 166 0
165 -149 898 -166 0
165 149 -899 166 0
165 149 899 -166 0
-166 -150 -167 0
-166 150 167 0
166 -150 167 0
166 150 167 0
-167 -151 168 0
-167 151 -168 0
167 -151 168 0
167 151 168 0
-168 -152 169 0
-168 152 -169 0
168 -152 -169 0
168 152 -169 0
-169 -153 170 0
-169 153 170 0
169 -153 -170 0
169 153 170 0
-154 -171 0
154 171 0
-171 -155 172 0
-171 155 172 0
171 -155 -172 0
171 155 -172 0
-172 -156 173 0
-172 156 -173 0
172 -156 173 0
172 156 -173 0
-173 -157 -174 0
-173 157 174 0
173 -157 174 0
173 157 -174 0
-174 -158 -930 175 0
-174 -158 930 -175 0
-174 158 -931 175 0
-174 158 931 -175 0
174 -158 -932 175 0
174 -158 932 -175 0
174 158 -933 175 0
174 158 933 -175 0
-175 -159 176 0
-175 159 -176 0
175 -159 176 0
175 159 176 0
-176 -160 -177 0
-176 160 -177 0
176 -160 -177 0
176 160 177 0
-177 -161 -178 0
-177 161 -178 0
177 -161 178 0
177 161 178 0
-178 -162 179 0
-178 162 -179 0
178 -162 -179 0
178 162 179 0
-179 -163 -950 180 0
-179 -163 950 -180 0
-179 163 -951 180 0
-179 163 951 -180 0
179 -163 -952 180 0
179 -163 952 -180 0
179 163 -953 180 0
179 163 953 -180 0
-180 -164 181 0
-180 164 181 0
180 -164 -181 0
180 164 -181 0
-181 -165 -958 182 0
-181 -165 958 -182 0
-181 165 -959 182 0
-181 165 959 -182 0
181 -165 -960 182 0
181 -165 960 -182 0
181 165 -961 182 0
181 165 961 -182 0
-182 -166 -183 0
-182 166 183 0
182 -166 183 0
182 166 -183 0
-183 -167 184 0
-183 167 184 0
183 -167 -184 0
183 167 -184 0
-184 -168 -185 0
-184 168 -185 0
184 -168 -185 0
184 168 185 0
-185 -169 -186 0
-185 169 186 0
185 -169 -186 0
185 169 -186 0
-186 -170 -187 0
-186 170 187 0
186 -170 187 0
186 170 -187 0
-171 188 0
171 -188 0
-188 -172 -189 0
-188 172 -189 0
188 -172 189 0
188 172 189 0
-189 -173 -988 190 0
-189 -173 988 -190 0
-189 173 -989 190 0
-189 173 989 -190 0
189 -173 -990 190 0
189 -173 990 -190 0
189 173 -991 190 0
189 173 991 -190 0
-190 -174 191 0
-190 174 191 0
190 -174 -191 0
190 174 191 0
-191 -175 -192 0
-191 175 192 0
191 -175 192 0
191 175 192 0
-192 -176 -1000 193 0
-192 -176 1000 -193 0
-192 176 -1001 193 0
-192 176 1001 -193 0
192 -176 -1002 193 0
192 -176 1002 -193 0
192 176 -1003 193 0
192 176 1003 -193 0
-193 -177 194 0
-193 177 194 0
193 -177 -194 0
193 177 -194 0
-194 -178 -195 0
-194 178 -195 0
194 -178 195 0
194 178 195 0
-195 -179 196 0
-195 179 196 0
195 -179 -196 0
195 179 196 0
-196 -180 -197 0
-196 180 197 0
196 -180 -197 0
196 180 -197 0
-197 -181 -198 0
-197 181 -198 0
197 -181 -198 0
197 181 198 0
-198 -182 -199 0
-198 182 199 0
198 -182 -199 0
198 182 -199 0
-199 -183 -200 0
-199 183 200 0
199 -183 -200 0
199 183 -200 0
-200 -184 201 0
-200 184 -201 0
200 -184 201 0
200 184 -201 0
-201 -185 202 0
-201 185 202 0
201 -185 -202 0
201 185 -202 0
-202 -186 203 0
-202 186 -203 0
202 -186 -203 0
202 186 203 0
-203 -187 -204 0
-203 187 204 0
203 -187 -204 0
203 187 -204 0
-188 205 0
188 -205 0
-205 -189 206 0
-205 189 206 0
205 -189 -206 0
205 189 -206 0
-206 -190 207 0
-206 190 -207 0
206 -190 207 0
206 190 -207 0
-207 -191 208 0
-207 191 -208 0
207 -191 -208 0
207 191 -208 0
-208 -192 -209 0
-208 192 209 0
208 -192 209 0
208 192 209 0
-209 -193 210 0
-209 193 -210 0
209 -193 210 0
209 193 210 0
-210 -194 -1070 211 0
-210 -194 1070 -211 0
-210 194 -1071 211 0
-210 194 1071 -211 0
210 -194 -1072 211 0
210 -194 1072 -211 0
210 194 -1073 211 0
210 194 1073 -211 0
-211 -195 212 0
-211 195 -212 0
211 -195 212 0
211 195 212 0
-212 -196 -213 0
-212 196 213 0
212 -196 213 0
212 196 213 0
-213 -197 -214 0
-213 197 214 0
213 -197 -214 0
213 197 214 0
-214 -198 -215 0
-214 198 -215 0
214 -198 -215 0
214 198 215 0
-215 -199 216 0
-215 199 -216 0
215 -199 216 0
215 199 216 0
-216 -200 217 0
-216 200 -217 0
216 -200 217 0
216 200 217 0
-217 -201 -218 0
-217 201 -218 0
217 -201 218 0
217 201 218 0
-218 -202 -1102 219 0
-218 -202 1102 -219 0
-218 202 -1103 219 0
-218 202 1103 -219 0
218 -202 -1104 219 0
218 -202 1104 -219 0
218 202 -1105 219 0
218 202 1105 -219 0
-219 -203 -220 0
-219 203 -220 0
219 -203 220 0
219 203 -220 0
-220 -204 -221 0
-220 204 -221 0
220 -204 221 0
220 204 -221 0
-205 222 0
205 -222 0
-222 -206 223 0
-222 206 -223 0
222 -206 -223 0
222 206 -223 0
-223 -207 224 0
-223 207 -224 0
223 -207 -224 0
223 207 -224 0
-224 -208 -225 0
-224 208 225 0
224 -208 225 0
224 208 225 0
-225 -209 -1128 226 0
-225 -209 1128 -226 0
-225 209 -1129 226 0
-225 209 1129 -226 0
225 -209 -1130 226 0
225 -209 1130 -226 0
225 209 -1131 226 0
225 209 1131 -226 0
-226 -210 -1132 227 0
-226 -210 1132 -227 0
-226 210 -1133 227 0
-226 210 1133 -227 0
226 -210 -1134 227 0
226 -210 1134 -227 0
226 210 -1135 227 0
226 210 1135 -227 0
-227 -211 228 0
-227 211 228 0
227 -211 -228 0
227 211 -228 0
-228 -212 -229 0
-228 212 229 0
228 -212 -229 0
228 212 -229 0
-229 -213 230 0
-229 213 230 0
229 -213 -230 0
229 213 230 0
-230 -214 -231 0
-230 214 231 0
230 -214 -231 0
230 214 231 0
-231 -215 -232 0
-231 215 232 0
231 -215 232 0
231 215 232 0
-232 -216 233 0
-232 216 -233 0
232 -216 233 0
232 216 -233 0
-233 -217 234 0
-233 217 -234 0
233 -217 234 0
233 217 -234 0
-234 -218 235 0
-234 218 -235 0
234 -218 -235 0
234 218 235 0
-235 -219 -236 0
-235 219 -236 0
235 -219 -236 0
235 219 236 0
-236 -220 -1172 237 0
-236 -220 1172 -237 0
-236 220 -1173 237 0
-236 220 1173 -237 0
236 -220 -1174 237 0
236 -220 1174 -237 0
236 220 -1175 237 0
236 220 1175 -237 0
-237 -221 -238 0
-237 221 -238 0
237 -221 238 0
237 221 238 0
-222 -239 0
222 239 0
-239 -223 -240 0
-239 223 240 0
239 -223 240 0
239 223 240 0
-240 -224 -241 0
-240 224 241 0
240 -224 241 0
240 224 241 0
-241 -225 -1190 242 0
-241 -225 1190 -242 0
-241 225 -1191 242 0
-241 225 1191 -242 0
241 -225 -1192 242 0
241 -225 1192 -242 0
241 225 -1193 242 0
241 225 1193 -242 0
-242 -226 -243 0
-242 226 243 0
242 -226 243 0
242 226 243 0
-243 -227 244 0
-243 227 244 0
243 -227 -244 0
243 227 244 0
-244 -228 245 0
-244 228 -245 0
244 -228 -245 0
244 228 -245 0
-245 -229 246 0
-245 229 -246 0
245 -229 -246 0
245 229 -246 0
-246 -230 247 0
-246 230 -247 0
246 -230 247 0
246 230 -247 0
-247 -231 -248 0
-247 231 -248 0
247 -231 248 0
247 231 -248 0
-248 -232 249 0
-248 232 -249 0
248 -232 249 0
248 232 -249 0
-249 -233 -250 0
-249 233 250 0
249 -233 250 0
249 233 250 0
-250 -234 251 0
-250 234 -251 0
250 -234 251 0
250 234 251 0
-251 -235 -252 0
-251 235 252 0
251 -235 -252 0
251 235 -252 0
-252 -236 253 0
-252 236 253 0
252 -236 -253 0
252 236 -253 0
-253 -237 254 0
-253 237 254 0
253 -237 254 0
253 237 -254 0
-254 -238 -255 0
-254 238 -255 0
254 -238 -255 0
254 238 255 0
-239 -256 0
239 256 0
-256 -240 257 0
-256 240 257 0
256 -240 257 0
256 240 -257 0
-257 -241 -258 0
-257 241 -258 0
257 -241 258 0
257 241 -258 0
-258 -242 259 0
-258 242 -259 0
258 -242 -259 0
258 242 259 0
-259 -243 -260 0
-259 243 260 0
259 -243 -260 0
259 243 -260 0
-260 -244 -261 0
-260 244 261 0
260 -244 -261 0
260 244 261 0
-261 -245 -262 0
-261 245 262 0
261 -245 -262 0
261 245 -262 0
-262 -246 263 0
-262 246 263 0
262 -246 263 0
262 246 -263 0
-263 -247 -1276 264 0
-263 -247 1276 -264 0
-263 247 -1277 264 0
-263 247 1277 -264 0
263 -247 -1278 264 0
263 -247 1278 -264 0
263 247 -1279 264 0
263 247 1279 -264 0
-264 -248 265 0
-264 248 265 0
264 -248 -265 0
264 248 265 0
-265 -249 266 0
-265 249 -266 0
265 -249 -266 0
265 249 266 0
-266 -250 -267 0
-266 250 267 0
266 -250 267 0
266 250 -267 0
-267 -251 -268 0
-267 251 -268 0
267 -251 268 0
267 251 268 0
-268 -252 269 0
-268 252 -269 0
268 -252 -269 0
268 252 -269 0
-269 -253 -270 0
-269 253 -270 0
269 -253 270 0
269 253 -270 0
-270 -254 271 0
-270 254 -271 0
270 -254 -271 0
270 254 -271 0
-271 -255 272 0
-271 255 -272 0
271 -255 -272 0
271 255 -272 0
-256 273 0
256 -273 0
-273 -257 274 0
-273 257 274 0
273 -257 -274 0
273 257 -274 0
-274 -258 -275 0
-274 258 275 0
274 -258 -275 0
274 258 275 0
-275 -259 -276 0
-275 259 276 0
275 -259 276 0
275 259 -276 0
-276 -260 277 0
-276 260 -277 0
276 -260 -277 0
276 260 277 0
-277 -261 -278 0
-277 261 278 0
277 -261 -278 0
277 261 -278 0
-278 -262 -279 0
-278 262 279 0
278 -262 -279 0
278 262 279 0
-279 -263 -280 0
-279 263 -280 0
279 -263 280 0
279 263 280 0
-280 -264 281 0
-280 264 281 0
280 -264 281 0
280 264 -281 0
-281 -265 -282 0
-281 265 -282 0
281 -265 282 0
281 265 282 0
-282 -266 -283 0
-282 266 -283 0
282 -266 283 0
282 266 -283 0
-283 -267 284 0
-283 267 -284 0
283 -267 -284 0
283 267 284 0
-284 -268 -285 0
-284 268 285 0
284 -268 -285 0
284 268 285 0
-285 -269 -286 0
-285 269 286 0
285 -269 286 0
285 269 286 0
-286 -270 287 0
-286 270 287 0
286 -270 287 0
286 270 -287 0
-287 -271 288 0
-287 271 288 0
287 -271 -288 0
287 271 288 0
-288 -272 289 0
-288 272 289 0
288 -272 -289 0
288 272 289 0
289 0
