data/benchmarks/bayes/90-17-6-q.gr
p tw 1377 1144
36 53
214 230
31 374
67 68
226 1135
99 100
247 264
96 113
118 778
18 35
192 1002
159 160
218 1103
147 823
8 9
188 205
111 748
40 41
21 37
103 655
251 252
100 101
69 522
132 133
129 146
173 988
87 656
219 1104
106 669
192 193
79 563
10 27
210 1135
41 42
221 238
73 74
149 896
284 285
63 564
82 577
133 134
162 179
14 15
225 226
43 60
74 75
225 1129
254 271
72 532
106 107
103 120
90 666
166 167
15 16
195 212
47 48
226 227
258 259
226 1130
66 574
107 108
88 104
263 1277
136 153
181 960
199 200
269 286
180 196
48 49
174 930
165 961
29 45
80 81
77 94
228 245
259 260
272 288
140 141
158 931
121 137
169 186
79 558
232 233
213 229
81 82
261 278
62 78
110 127
176 1003
173 174
243 260
146 822
22 23
202 219
3 19
233 234
51 68
265 266
30 372
246 262
114 115
53 523
95 111
143 160
155 171
206 207
187 203
55 56
235 252
36 52
266 267
31 373
139 791
247 263
96 112
147 148
128 144
218 1102
147 822
207 208
78 561
239 240
220 236
211 1072
268 285
71 531
129 145
87 655
161 177
219 1103
10 26
240 241
221 237
116 709
220 1175
253 269
180 950
247 1278
63 563
102 118
35 455
25 42
181 182
64 500
162 178
194 210
242 1190
43 59
273 274
225 1128
254 270
72 531
135 151
214 215
17 34
100 706
195 211
227 243
76 92
109 126
136 152
181 959
168 184
21 22
201 218
14 373
50 67
165 960
228 244
77 93
113 114
260 276
142 159
158 930
169 185
205 206
54 55
241 1193
83 100
261 277
110 126
146 147
176 1002
81 566
202 1103
175 192
24 41
202 218
2 291
51 67
87 88
84 101
53 522
116 133
143 159
179 180
90 669
176 193
28 29
9 25
57 74
235 251
88 89
55 531
139 790
120 121
210 1070
66 577
117 134
149 166
180 181
29 30
209 226
78 560
61 62
58 75
42 58
174 933
90 107
211 1071
121 122
71 530
209 1129
268 284
150 167
134 150
2 3
80 569
213 214
31 48
62 63
242 259
94 95
91 108
75 91
123 140
247 1277
154 155
35 454
3 4
183 200
135 779
35 36
32 49
16 32
146 825
64 81
246 247
95 96
127 128
124 141
108 124
5 22
190 989
36 37
216 233
17 33
65 82
49 65
279 280
97 114
70 524
128 129
109 125
160 161
166 897
157 174
130 822
6 23
220 221
63 503
69 70
201 217
249 266
14 372
50 66
101 102
82 98
98 115
161 162
179 952
142 158
10 11
80 564
190 207
39 56
23 39
253 254
241 1192
234 250
83 99
131 148
180 953
194 195
202 1102
175 191
43 44
62 561
223 240
24 40
64 503
72 89
56 72
286 287
267 283
135 136
116 132
164 181
237 254
176 192
227 228
208 224
76 77
256 273
57 73
100 709
287 288
55 530
168 169
149 165
197 214
30 46
209 225
260 261
241 257
209 1128
257 274
90 106
150 166
193 1003
80 568
182 198
31 47
261 262
242 258
123 139
183 199
81 569
135 778
215 231
231 248
64 80
128 748
124 140
156 172
9 10
5 21
47 503
190 988
38 55
104 656
216 232
225 1193
227 1135
248 264
264 281
97 113
70 523
130 147
210 1073
166 896
157 173
189 205
42 43
268 269
63 502
71 88
249 265
134 135
163 180
179 951
80 563
12 29
107 666
190 206
75 76
255 272
194 1070
241 1191
104 121
127 751
131 147
83 574
16 17
196 213
13 30
62 560
45 62
189 991
223 239
108 109
105 122
137 154
182 961
164 180
64 569
165 899
138 793
49 50
175 931
46 63
229 246
78 95
109 110
138 155
170 187
201 202
19 36
197 213
50 51
134 777
130 825
82 83
230 247
79 96
63 79
262 279
111 128
142 143
171 188
23 24
203 220
20 37
4 20
80 567
52 69
193 1002
83 84
234 235
263 280
115 116
112 129
144 161
175 176
24 25
204 221
56 57
236 253
53 70
37 53
267 268
85 102
116 117
145 162
163 952
177 194
236 1174
208 209
26 43
57 58
47 502
167 168
38 54
89 90
86 103
70 86
104 655
118 135
225 1192
149 150
130 146
178 195
237 1175
30 31
210 227
27 44
11 27
52 455
241 242
90 91
200 201
270 287
71 87
119 136
151 168
182 183
163 179
31 32
141 142
80 562
12 28
211 228
60 77
44 60
264 1277
274 275
255 271
123 124
117 706
104 120
152 169
127 750
1 18
215 216
122 793
196 212
64 65
174 175
244 261
45 61
189 990
93 110
156 157
182 960
5 6
185 202
226 1134
64 568
118 777
138 792
165 898
175 930
97 98
192 1001
229 245
78 94
248 249
126 143
103 654
189 190
170 186
148 149
218 235
19 35
134 776
281 282
106 668
210 1134
79 562
262 278
111 127
222 223
82 576
203 219
107 669
263 279
194 1073
144 160
122 123
83 577
252 269
236 252
85 101
226 1129
163 951
177 193
236 1173
263 1276
26 42
47 501
59 76
237 253
269 285
118 134
111 751
210 226
63 64
52 454
69 525
173 991
92 109
270 286
151 167
4 5
184 201
149 899
264 1276
33 50
211 227
243 259
125 142
127 749
37 38
122 792
34 51
217 234
66 83
244 260
158 175
31 372
226 1133
7 24
185 201
64 567
70 71
118 776
67 84
192 1000
250 267
99 116
130 131
159 176
11 12
191 208
40 57
218 234
251 268
87 654
219 1102
106 667
100 117
79 561
210 1133
132 149
163 164
116 708
220 1174
192 209
44 45
63 562
41 58
25 41
82 575
73 90
224 241
133 150
165 182
117 709
196 197
14 31
30 375
72 530
155 156
225 242
74 91
288 289
106 123
137 138
247 248
96 97
166 183
226 1128
18 19
198 215
15 32
229 230
47 64
181 958
188 189
258 275
59 75
107 124
218 1105
147 825
139 156
280 281
111 750
165 959
129 130
103 657
199 216
48 65
262 263
80 97
173 990
111 112
92 108
140 157
79 565
172 189
203 204
184 200
162 163
149 898
176 1001
33 49
232 249
81 98
144 145
254 255
2 290
103 104
125 141
173 190
84 100
242 1193
22 39
225 1131
236 237
122 791
195 196
217 233
90 668
66 82
265 282
114 131
177 178
158 174
206 223
226 1132
7 23
66 576
55 72
117 133
269 270
263 1279
250 266
118 119
228 229
99 115
77 78
78 559
147 164
58 74
174 932
210 211
211 1070
191 207
169 170
239 256
40 56
158 933
151 152
79 560
210 1132
132 148
110 111
91 107
116 707
220 1173
243 244
247 1276
224 240
202 203
73 89
32 48
146 824
165 181
143 144
14 30
30 374
53 525
235 236
106 122
65 81
198 214
139 793
47 63
6 22
218 1104
139 155
165 958
98 114
21 38
71 533
80 96
113 130
39 55
172 188
25 26
205 222
54 71
180 952
176 1000
64 502
146 163
72 88
242 1192
225 1130
87 104
90 667
100 708
179 196
28 45
66 575
120 137
78 558
257 273
180 197
174 931
14 375
61 78
272 289
158 932
121 138
153 170
2 19
213 230
94 111
81 568
135 777
202 1105
84 85
146 823
154 171
231 247
217 218
35 52
30 373
176 177
246 263
95 112
127 144
264 280
117 118
187 204
227 1134
70 522
55 533
139 792
68 85
210 1072
209 210
250 251
58 59
128 145
238 255
63 501
160 177
191 192
150 151
209 1131
220 237
211 1073
69 86
71 532
179 950
101 118
242 243
113 129
91 92
161 178
271 288
241 1190
224 225
183 184
253 270
54 70
32 33
102 119
180 951
13 29
212 229
62 559
165 166
247 1279
64 501
146 162
124 125
194 211
242 1191
105 121
275 276
128 751
216 217
87 103
65 66
135 152
245 262
46 62
190 991
276 277
198 199
100 707
179 195
157 158
227 244
28 44
6 7
76 93
138 154
186 203
166 899
139 140
249 250
130 824
98 99
168 185
230 246
79 95
14 374
190 191
260 277
61 77
39 40
219 236
20 36
193 1001
80 566
172 173
282 283
153 169
131 132
2 18
112 128
223 224
94 110
72 73
204 220
81 567
53 69
135 776
202 1104
283 284
164 165
145 161
193 210
256 257
127 143
104 654
225 1191
227 1133
9 26
197 198
55 532
210 1071
68 84
178 194
237 1174
27 43
257 258
238 254
63 500
160 176
119 135
209 1130
42 59
101 117
134 151
60 76
271 287
152 168
75 92
231 232
212 228
62 558
189 989
93 109
16 33
128 750
182 959
1 291
38 39
108 125
165 897
138 791
245 261
264 265
190 990
126 142
49 66
70 525
8 25
186 202
166 898
71 72
130 823
12 13
82 99
219 235
179 953
193 1000
80 565
104 105
107 668
23 40
194 1072
234 251
13 14
45 46
115 132
83 576
252 268
105 106
56 73
163 950
193 209
236 1172
46 47
226 243
267 284
78 79
47 500
175 933
225 1190
138 139
208 225
227 1132
167 184
19 20
89 106
230 231
237 1173
79 80
69 524
259 276
134 779
30 47
171 172
241 258
20 21
200 217
52 53
263 264
112 113
182 199
141 158
127 748
53 54
233 250
34 50
189 988
145 146
215 232
174 191
26 27
128 749
182 958
237 238
1 290
64 566
86 87
138 790
67 83
165 896
156 173
266 283
104 657
178 179
248 265
159 175
27 28
207 224
8 24
270 271
251 267
189 206
106 666
100 116
148 165
211 212
192 208
60 61
240 257
41 57
82 574
264 1279
271 272
107 667
152 153
222 239
133 149
1 2
181 198
194 1071
117 708
212 213
244 245
115 131
83 575
93 94
225 241
74 90
122 139
185 186
166 182
214 231
31 375
15 31
245 246
226 242
277 278
258 274
126 127
118 779
192 1003
107 123
175 932
147 824
186 187
111 749
167 183
218 219
103 656
89 105
199 215
237 1172
48 64
278 279
69 523
173 989
259 275
87 657
134 778
219 1105
140 156
79 564
63 80
219 220
200 216
149 897
232 248
63 565
81 97
4 21
141 157
173 189
22 38
252 253
72 533
122 790
233 249
265 281
114 130
37 54
193 194
174 190
206 222
226 1131
59 60
163 953
55 71
236 1175
285 286
88 105
263 1278
181 961
266 282
147 163
70 87
29 46
207 223
92 93
11 28
79 559
148 164
184 185
33 34
116 706
220 1172
62 79
240 256
264 1278
125 126
44 61
3 20
181 197
117 707
66 67
53 524
122 138
158 159
155 172
7 8
